c preprocessed version of BN_81, 29 vertices, 287 edges
p td 29 287
1 0
9 0
7 0
11 0
15 0
16 0
17 0
1 2
4 1
3 1
9 1
7 1
11 1
15 1
3 2
10 2
9 2
11 2
15 2
3 4
3 6
9 3
7 3
11 3
15 3
16 3
17 3
14 3
5 4
9 4
7 4
12 4
11 4
13 4
15 4
16 4
14 4
5 6
5 8
9 5
7 5
12 5
11 5
13 5
17 5
14 5
7 6
12 6
11 6
13 6
15 6
16 6
17 6
14 6
7 8
7 10
9 7
7 12
7 13
7 11
7 14
7 15
7 16
7 17
9 8
12 8
11 8
13 8
15 8
16 8
17 8
14 8
9 10
9 12
9 11
9 13
9 15
9 16
9 17
9 14
11 10
13 10
15 10
16 10
17 10
14 10
12 11
11 13
11 14
11 17
11 15
11 16
12 13
12 15
12 16
12 17
12 14
13 14
13 15
13 16
13 17
15 14
16 14
17 14
15 16
15 17
16 17
18 22
18 0
18 3
18 19
18 21
18 25
18 8
18 20
18 24
18 6
18 10
18 27
18 23
18 9
18 7
18 11
18 13
18 15
18 28
18 16
18 17
18 26
18 14
19 22
19 5
19 21
19 25
19 8
19 20
19 24
19 23
19 27
19 7
19 12
19 11
19 13
19 28
19 17
19 26
19 14
20 28
20 22
20 1
20 5
20 21
20 25
20 8
20 24
20 23
20 27
20 7
20 12
20 11
20 13
20 17
20 26
20 14
21 28
21 22
21 3
21 5
21 25
21 8
21 24
21 23
21 27
21 7
21 12
21 11
21 13
21 15
21 17
21 26
21 14
22 28
22 0
22 25
22 5
22 24
22 10
22 23
22 27
22 9
22 7
22 12
22 11
22 13
22 15
22 17
22 26
22 14
23 28
23 2
23 25
23 24
23 10
23 27
23 9
23 7
23 11
23 13
23 15
23 16
23 17
23 26
23 14
24 28
24 1
24 3
24 4
24 5
24 25
24 8
24 27
24 9
24 7
24 12
24 11
24 13
24 15
24 16
24 17
24 26
24 14
25 28
25 2
25 5
25 8
25 10
25 27
25 9
25 7
25 12
25 11
25 13
25 15
25 16
25 17
25 26
25 14
26 28
26 9
26 7
26 12
26 11
26 13
26 15
26 16
26 17
26 14
26 0
26 1
26 5
26 8
26 27
27 28
27 5
27 8
27 10
27 9
27 7
27 12
27 11
27 13
27 15
27 16
27 17
27 14
28 5
28 8
28 10
28 9
28 7
28 12
28 11
28 13
28 15
28 16
28 17
28 14
